n = 42;
k = 5;
roles = [
{m, d},
{f, g},
{m, d},
{d, g},
{d, f},
{f, g},
{g, f},
{d, g},
{f, d},
{f, g},
{m, g},
{g, m},
{m, f},
{g, f},
{f, m},
{g, d},
{g, f},
{d, m},
{m, d},
{g, d},
{g, m},
{m, f},
{m, g},
{m, d},
{g, d},
{f, m},
{g, f},
{f, d},
{f, g},
{m, g},
{f, d},
{d, f},
{d, m},
{g, m},
{g, d},
{g, m},
{d, m},
{m, g},
{f, g},
{f, d},
{d, g},
{f, m}
];
num_pairs = 3;
player1 = [2, 13, 25];
player2 = [5, 4, 11];
